4568 4319 2 3 4 5 6 7 9 10 12 13 14 15 16 19 20 21 22 23 24 27 28 30 31 33 34 35 36 37 38 39 40 42 43 44 46 48 50 51 52 54 55 56 57 58 59 60 61 63 64 65 66 67 68 69 70 72 73 74 76 77 78 79 80 81 82 84 85 86 87 88 90 91 93 94 95 96 97 98 100 